p cnf 266 1312
75 111 0
119 120 185 0
143 159 188 0
67 133 140 0
146 170 0
48 51 110 114 0
42 106 108 139 0
93 98 102 169 0
28 231 237 250 0
115 132 195 0
104 155 0
156 157 201 203 0
19 162 163 164 0
90 130 165 0
127 151 167 168 0
37 97 138 173 174 0
135 137 0
83 85 86 150 175 0
80 81 99 148 0
76 78 131 0
73 103 118 0
68 70 71 88 128 0
61 64 66 126 0
49 54 57 58 125 145 0
39 41 43 44 46 47 0
34 38 94 136 0
29 31 32 91 149 0
27 82 87 147 0
21 22 24 26 79 0
17 18 0
12 13 15 0
60 62 0
53 55 109 0
11 36 96 134 0
10 84 0
9 176 177 0
112 178 0
180 181 0
74 89 183 0
65 186 189 190 191 0
45 52 0
141 171 192 0
30 50 95 0
123 193 0
20 194 0
166 196 198 199 200 0
16 202 204 0
63 161 0
-179 -206 0
-111 -179 0
-179 -209 0
-69 -179 0
-133 -179 0
-111 -206 0
-206 -209 0
-69 -206 0
-133 -206 0
-111 -209 0
-69 -111 0
-111 -133 0
-69 -209 0
-133 -209 0
-69 -133 0
-19 -201 0
-165 -201 0
-56 -201 0
-201 -211 0
-138 -201 0
-19 -165 0
-19 -56 0
-19 -211 0
-19 -138 0
-56 -165 0
-165 -211 0
-138 -165 0
-56 -211 0
-56 -138 0
-138 -211 0
-81 -175 0
-175 -213 0
-121 -175 0
-144 -175 0
-71 -175 0
-81 -213 0
-81 -121 0
-81 -144 0
-71 -81 0
-121 -213 0
-144 -213 0
-71 -213 0
-121 -144 0
-71 -121 0
-71 -144 0
-66 -145 0
-47 -66 0
-32 -66 0
-66 -82 0
-66 -79 0
-47 -145 0
-32 -145 0
-82 -145 0
-79 -145 0
-32 -47 0
-47 -82 0
-47 -79 0
-32 -82 0
-32 -79 0
-79 -82 0
-74 -186 0
-74 -158 0
-74 -141 0
-74 -95 0
-74 -113 0
-158 -186 0
-141 -186 0
-95 -186 0
-113 -186 0
-141 -158 0
-95 -158 0
-113 -158 0
-95 -141 0
-113 -141 0
-95 -113 0
-92 -216 0
-92 -153 0
-92 -196 0
-16 -92 0
-63 -92 0
-153 -216 0
-196 -216 0
-16 -216 0
-63 -216 0
-153 -196 0
-16 -153 0
-63 -153 0
-16 -196 0
-63 -196 0
-16 -63 0
-179 -201 0
-175 -179 0
-66 -179 0
-74 -179 0
-92 -179 0
-175 -201 0
-66 -201 0
-74 -201 0
-92 -201 0
-66 -175 0
-74 -175 0
-92 -175 0
-66 -74 0
-66 -92 0
-74 -92 0
-19 -206 0
-81 -206 0
-145 -206 0
-186 -206 0
-206 -216 0
-19 -81 0
-19 -145 0
-19 -186 0
-19 -216 0
-81 -145 0
-81 -186 0
-81 -216 0
-145 -186 0
-145 -216 0
-186 -216 0
-111 -165 0
-111 -213 0
-47 -111 0
-111 -158 0
-111 -153 0
-165 -213 0
-47 -165 0
-158 -165 0
-153 -165 0
-47 -213 0
-158 -213 0
-153 -213 0
-47 -158 0
-47 -153 0
-153 -158 0
-56 -209 0
-121 -209 0
-32 -209 0
-141 -209 0
-196 -209 0
-56 -121 0
-32 -56 0
-56 -141 0
-56 -196 0
-32 -121 0
-121 -141 0
-121 -196 0
-32 -141 0
-32 -196 0
-141 -196 0
-69 -211 0
-69 -144 0
-69 -82 0
-69 -95 0
-16 -69 0
-144 -211 0
-82 -211 0
-95 -211 0
-16 -211 0
-82 -144 0
-95 -144 0
-16 -144 0
-82 -95 0
-16 -82 0
-16 -95 0
-133 -138 0
-71 -133 0
-79 -133 0
-113 -133 0
-63 -133 0
-71 -138 0
-79 -138 0
-113 -138 0
-63 -138 0
-71 -79 0
-71 -113 0
-63 -71 0
-79 -113 0
-63 -79 0
-63 -113 0
-119 -218 0
-188 -218 0
-218 -225 0
-129 -218 0
-119 -188 0
-119 -225 0
-119 -129 0
-188 -225 0
-129 -188 0
-129 -225 0
-110 -219 0
-110 -228 0
-110 -231 0
-110 -220 0
-219 -228 0
-219 -231 0
-219 -220 0
-228 -231 0
-220 -228 0
-220 -231 0
-14 -156 0
-156 -167 0
-156 -221 0
-156 -222 0
-14 -167 0
-14 -221 0
-14 -222 0
-167 -221 0
-167 -222 0
-221 -222 0
-96 -100 0
-96 -207 0
-96 -112 0
-96 -180 0
-100 -207 0
-100 -112 0
-100 -180 0
-112 -207 0
-180 -207 0
-112 -180 0
-25 -123 0
-20 -25 0
-25 -166 0
-25 -202 0
-20 -123 0
-123 -166 0
-123 -202 0
-20 -166 0
-20 -202 0
-166 -202 0
-110 -218 0
-156 -218 0
-96 -218 0
-25 -218 0
-110 -156 0
-96 -110 0
-25 -110 0
-96 -156 0
-25 -156 0
-25 -96 0
-119 -219 0
-14 -119 0
-100 -119 0
-119 -123 0
-14 -219 0
-100 -219 0
-123 -219 0
-14 -100 0
-14 -123 0
-100 -123 0
-188 -228 0
-167 -188 0
-188 -207 0
-20 -188 0
-167 -228 0
-207 -228 0
-20 -228 0
-167 -207 0
-20 -167 0
-20 -207 0
-225 -231 0
-221 -225 0
-112 -225 0
-166 -225 0
-221 -231 0
-112 -231 0
-166 -231 0
-112 -221 0
-166 -221 0
-112 -166 0
-129 -220 0
-129 -222 0
-129 -180 0
-129 -202 0
-220 -222 0
-180 -220 0
-202 -220 0
-180 -222 0
-202 -222 0
-180 -202 0
-42 -102 0
-42 -224 0
-42 -237 0
-102 -224 0
-102 -237 0
-224 -237 0
-46 -58 0
-38 -58 0
-31 -58 0
-38 -46 0
-31 -46 0
-31 -38 0
-189 -226 0
-189 -227 0
-189 -192 0
-226 -227 0
-192 -226 0
-192 -227 0
-229 -232 0
-194 -229 0
-198 -229 0
-194 -232 0
-198 -232 0
-194 -198 0
-42 -58 0
-42 -189 0
-42 -229 0
-58 -189 0
-58 -229 0
-189 -229 0
-46 -102 0
-102 -226 0
-102 -232 0
-46 -226 0
-46 -232 0
-226 -232 0
-38 -224 0
-224 -227 0
-194 -224 0
-38 -227 0
-38 -194 0
-194 -227 0
-31 -237 0
-192 -237 0
-198 -237 0
-31 -192 0
-31 -198 0
-192 -198 0
-51 -170 0
-169 -170 0
-35 -170 0
-28 -170 0
-51 -169 0
-35 -51 0
-28 -51 0
-35 -169 0
-28 -169 0
-28 -35 0
-85 -135 0
-135 -234 0
-78 -135 0
-135 -182 0
-85 -234 0
-78 -85 0
-85 -182 0
-78 -234 0
-182 -234 0
-78 -182 0
-64 -184 0
-44 -184 0
-107 -184 0
-29 -184 0
-44 -64 0
-64 -107 0
-29 -64 0
-44 -107 0
-29 -44 0
-29 -107 0
-36 -235 0
-9 -235 0
-235 -236 0
-178 -235 0
-9 -36 0
-36 -236 0
-36 -178 0
-9 -236 0
-9 -178 0
-178 -236 0
-23 -101 0
-101 -238 0
-101 -193 0
-101 -199 0
-23 -238 0
-23 -193 0
-23 -199 0
-193 -238 0
-199 -238 0
-193 -199 0
-135 -170 0
-170 -184 0
-170 -235 0
-101 -170 0
-135 -184 0
-135 -235 0
-101 -135 0
-184 -235 0
-101 -184 0
-101 -235 0
-51 -85 0
-51 -64 0
-36 -51 0
-23 -51 0
-64 -85 0
-36 -85 0
-23 -85 0
-36 -64 0
-23 -64 0
-23 -36 0
-169 -234 0
-44 -169 0
-9 -169 0
-169 -238 0
-44 -234 0
-9 -234 0
-234 -238 0
-9 -44 0
-44 -238 0
-9 -238 0
-35 -78 0
-35 -107 0
-35 -236 0
-35 -193 0
-78 -107 0
-78 -236 0
-78 -193 0
-107 -236 0
-107 -193 0
-193 -236 0
-28 -182 0
-28 -29 0
-28 -178 0
-28 -199 0
-29 -182 0
-178 -182 0
-182 -199 0
-29 -178 0
-29 -199 0
-178 -199 0
-214 -239 0
-120 -214 0
-143 -214 0
-72 -214 0
-214 -240 0
-67 -214 0
-120 -239 0
-143 -239 0
-72 -239 0
-239 -240 0
-67 -239 0
-120 -143 0
-72 -120 0
-120 -240 0
-67 -120 0
-72 -143 0
-143 -240 0
-67 -143 0
-72 -240 0
-67 -72 0
-67 -240 0
-48 -108 0
-33 -48 0
-48 -116 0
-48 -250 0
-48 -241 0
-48 -115 0
-33 -108 0
-108 -116 0
-108 -250 0
-108 -241 0
-108 -115 0
-33 -116 0
-33 -250 0
-33 -241 0
-33 -115 0
-116 -250 0
-116 -241 0
-115 -116 0
-241 -250 0
-115 -250 0
-115 -241 0
-162 -203 0
-203 -205 0
-151 -203 0
-203 -242 0
-203 -243 0
-173 -203 0
-162 -205 0
-151 -162 0
-162 -242 0
-162 -243 0
-162 -173 0
-151 -205 0
-205 -242 0
-205 -243 0
-173 -205 0
-151 -242 0
-151 -243 0
-151 -173 0
-242 -243 0
-173 -242 0
-173 -243 0
-148 -150 0
-76 -150 0
-73 -150 0
-122 -150 0
-150 -160 0
-70 -150 0
-76 -148 0
-73 -148 0
-122 -148 0
-148 -160 0
-70 -148 0
-73 -76 0
-76 -122 0
-76 -160 0
-70 -76 0
-73 -122 0
-73 -160 0
-70 -73 0
-122 -160 0
-70 -122 0
-70 -160 0
-57 -61 0
-61 -142 0
-61 -94 0
-61 -91 0
-61 -87 0
-26 -61 0
-57 -142 0
-57 -94 0
-57 -91 0
-57 -87 0
-26 -57 0
-94 -142 0
-91 -142 0
-87 -142 0
-26 -142 0
-91 -94 0
-87 -94 0
-26 -94 0
-87 -91 0
-26 -91 0
-26 -87 0
-154 -244 0
-154 -197 0
-15 -154 0
-62 -154 0
-109 -154 0
-154 -245 0
-197 -244 0
-15 -244 0
-62 -244 0
-109 -244 0
-244 -245 0
-15 -197 0
-62 -197 0
-109 -197 0
-197 -245 0
-15 -62 0
-15 -109 0
-15 -245 0
-62 -109 0
-62 -245 0
-109 -245 0
-89 -190 0
-52 -89 0
-40 -89 0
-89 -171 0
-50 -89 0
-89 -246 0
-52 -190 0
-40 -190 0
-171 -190 0
-50 -190 0
-190 -246 0
-40 -52 0
-52 -171 0
-50 -52 0
-52 -246 0
-40 -171 0
-40 -50 0
-40 -246 0
-50 -171 0
-171 -246 0
-50 -246 0
-48 -214 0
-203 -214 0
-150 -214 0
-61 -214 0
-154 -214 0
-89 -214 0
-48 -203 0
-48 -150 0
-48 -61 0
-48 -154 0
-48 -89 0
-150 -203 0
-61 -203 0
-154 -203 0
-89 -203 0
-61 -150 0
-150 -154 0
-89 -150 0
-61 -154 0
-61 -89 0
-89 -154 0
-108 -239 0
-162 -239 0
-148 -239 0
-57 -239 0
-239 -244 0
-190 -239 0
-108 -162 0
-108 -148 0
-57 -108 0
-108 -244 0
-108 -190 0
-148 -162 0
-57 -162 0
-162 -244 0
-162 -190 0
-57 -148 0
-148 -244 0
-148 -190 0
-57 -244 0
-57 -190 0
-190 -244 0
-33 -120 0
-120 -205 0
-76 -120 0
-120 -142 0
-120 -197 0
-52 -120 0
-33 -205 0
-33 -76 0
-33 -142 0
-33 -197 0
-33 -52 0
-76 -205 0
-142 -205 0
-197 -205 0
-52 -205 0
-76 -142 0
-76 -197 0
-52 -76 0
-142 -197 0
-52 -142 0
-52 -197 0
-116 -143 0
-143 -151 0
-73 -143 0
-94 -143 0
-15 -143 0
-40 -143 0
-116 -151 0
-73 -116 0
-94 -116 0
-15 -116 0
-40 -116 0
-73 -151 0
-94 -151 0
-15 -151 0
-40 -151 0
-73 -94 0
-15 -73 0
-40 -73 0
-15 -94 0
-40 -94 0
-15 -40 0
-72 -250 0
-72 -242 0
-72 -122 0
-72 -91 0
-62 -72 0
-72 -171 0
-242 -250 0
-122 -250 0
-91 -250 0
-62 -250 0
-171 -250 0
-122 -242 0
-91 -242 0
-62 -242 0
-171 -242 0
-91 -122 0
-62 -122 0
-122 -171 0
-62 -91 0
-91 -171 0
-62 -171 0
-240 -241 0
-240 -243 0
-160 -240 0
-87 -240 0
-109 -240 0
-50 -240 0
-241 -243 0
-160 -241 0
-87 -241 0
-109 -241 0
-50 -241 0
-160 -243 0
-87 -243 0
-109 -243 0
-50 -243 0
-87 -160 0
-109 -160 0
-50 -160 0
-87 -109 0
-50 -87 0
-50 -109 0
-67 -115 0
-67 -173 0
-67 -70 0
-26 -67 0
-67 -245 0
-67 -246 0
-115 -173 0
-70 -115 0
-26 -115 0
-115 -245 0
-115 -246 0
-70 -173 0
-26 -173 0
-173 -245 0
-173 -246 0
-26 -70 0
-70 -245 0
-70 -246 0
-26 -245 0
-26 -246 0
-245 -246 0
-130 -163 0
-163 -247 0
-163 -248 0
-97 -163 0
-130 -247 0
-130 -248 0
-97 -130 0
-247 -248 0
-97 -247 0
-97 -248 0
-99 -208 0
-99 -249 0
-99 -210 0
-68 -99 0
-208 -249 0
-208 -210 0
-68 -208 0
-210 -249 0
-68 -249 0
-68 -210 0
-43 -125 0
-125 -149 0
-125 -147 0
-24 -125 0
-43 -149 0
-43 -147 0
-24 -43 0
-147 -149 0
-24 -149 0
-24 -147 0
-18 -124 0
-60 -124 0
-55 -124 0
-124 -212 0
-18 -60 0
-18 -55 0
-18 -212 0
-55 -60 0
-60 -212 0
-55 -212 0
-117 -251 0
-117 -200 0
-117 -204 0
-117 -161 0
-200 -251 0
-204 -251 0
-161 -251 0
-200 -204 0
-161 -200 0
-161 -204 0
-99 -163 0
-125 -163 0
-124 -163 0
-117 -163 0
-99 -125 0
-99 -124 0
-99 -117 0
-124 -125 0
-117 -125 0
-117 -124 0
-130 -208 0
-43 -130 0
-18 -130 0
-130 -251 0
-43 -208 0
-18 -208 0
-208 -251 0
-18 -43 0
-43 -251 0
-18 -251 0
-247 -249 0
-149 -247 0
-60 -247 0
-200 -247 0
-149 -249 0
-60 -249 0
-200 -249 0
-60 -149 0
-149 -200 0
-60 -200 0
-210 -248 0
-147 -248 0
-55 -248 0
-204 -248 0
-147 -210 0
-55 -210 0
-204 -210 0
-55 -147 0
-147 -204 0
-55 -204 0
-68 -97 0
-24 -97 0
-97 -212 0
-97 -161 0
-24 -68 0
-68 -212 0
-68 -161 0
-24 -212 0
-24 -161 0
-161 -212 0
-155 -157 0
-155 -168 0
-155 -174 0
-157 -168 0
-157 -174 0
-168 -174 0
-86 -137 0
-118 -137 0
-128 -137 0
-86 -118 0
-86 -128 0
-118 -128 0
-230 -233 0
-13 -230 0
-223 -230 0
-13 -233 0
-223 -233 0
-13 -223 0
-11 -252 0
-252 -253 0
-252 -254 0
-11 -253 0
-11 -254 0
-253 -254 0
-137 -155 0
-155 -230 0
-155 -252 0
-137 -230 0
-137 -252 0
-230 -252 0
-86 -157 0
-157 -233 0
-11 -157 0
-86 -233 0
-11 -86 0
-11 -233 0
-118 -168 0
-13 -168 0
-168 -253 0
-13 -118 0
-118 -253 0
-13 -253 0
-128 -174 0
-174 -223 0
-174 -254 0
-128 -223 0
-128 -254 0
-223 -254 0
-106 -146 0
-98 -146 0
-146 -255 0
-132 -146 0
-98 -106 0
-106 -255 0
-106 -132 0
-98 -255 0
-98 -132 0
-132 -255 0
-104 -164 0
-90 -104 0
-104 -127 0
-37 -104 0
-90 -164 0
-127 -164 0
-37 -164 0
-90 -127 0
-37 -90 0
-37 -127 0
-54 -256 0
-41 -256 0
-136 -256 0
-22 -256 0
-41 -54 0
-54 -136 0
-22 -54 0
-41 -136 0
-22 -41 0
-22 -136 0
-10 -257 0
-176 -257 0
-257 -258 0
-257 -259 0
-10 -176 0
-10 -258 0
-10 -259 0
-176 -258 0
-176 -259 0
-258 -259 0
-191 -260 0
-59 -260 0
-260 -261 0
-260 -262 0
-59 -191 0
-191 -261 0
-191 -262 0
-59 -261 0
-59 -262 0
-261 -262 0
-104 -146 0
-146 -256 0
-146 -257 0
-146 -260 0
-104 -256 0
-104 -257 0
-104 -260 0
-256 -257 0
-256 -260 0
-257 -260 0
-106 -164 0
-54 -106 0
-10 -106 0
-106 -191 0
-54 -164 0
-10 -164 0
-164 -191 0
-10 -54 0
-54 -191 0
-10 -191 0
-90 -98 0
-41 -98 0
-98 -176 0
-59 -98 0
-41 -90 0
-90 -176 0
-59 -90 0
-41 -176 0
-41 -59 0
-59 -176 0
-127 -255 0
-136 -255 0
-255 -258 0
-255 -261 0
-127 -136 0
-127 -258 0
-127 -261 0
-136 -258 0
-136 -261 0
-258 -261 0
-37 -132 0
-22 -132 0
-132 -259 0
-132 -262 0
-22 -37 0
-37 -259 0
-37 -262 0
-22 -259 0
-22 -262 0
-259 -262 0
-77 -263 0
-75 -263 0
-185 -263 0
-159 -263 0
-187 -263 0
-140 -263 0
-75 -77 0
-77 -185 0
-77 -159 0
-77 -187 0
-77 -140 0
-75 -185 0
-75 -159 0
-75 -187 0
-75 -140 0
-159 -185 0
-185 -187 0
-140 -185 0
-159 -187 0
-140 -159 0
-140 -187 0
-114 -139 0
-93 -114 0
-114 -215 0
-114 -152 0
-114 -217 0
-114 -195 0
-93 -139 0
-139 -215 0
-139 -152 0
-139 -217 0
-139 -195 0
-93 -215 0
-93 -152 0
-93 -217 0
-93 -195 0
-152 -215 0
-215 -217 0
-195 -215 0
-152 -217 0
-152 -195 0
-195 -217 0
-80 -83 0
-83 -264 0
-83 -131 0
-83 -103 0
-83 -265 0
-83 -88 0
-80 -264 0
-80 -131 0
-80 -103 0
-80 -265 0
-80 -88 0
-131 -264 0
-103 -264 0
-264 -265 0
-88 -264 0
-103 -131 0
-131 -265 0
-88 -131 0
-103 -265 0
-88 -103 0
-88 -265 0
-49 -126 0
-39 -126 0
-126 -172 0
-34 -126 0
-27 -126 0
-21 -126 0
-39 -49 0
-49 -172 0
-34 -49 0
-27 -49 0
-21 -49 0
-39 -172 0
-34 -39 0
-27 -39 0
-21 -39 0
-34 -172 0
-27 -172 0
-21 -172 0
-27 -34 0
-21 -34 0
-21 -27 0
-8 -266 0
-17 -266 0
-7 -266 0
-12 -266 0
-53 -266 0
-6 -266 0
-8 -17 0
-7 -8 0
-8 -12 0
-8 -53 0
-6 -8 0
-7 -17 0
-12 -17 0
-17 -53 0
-6 -17 0
-7 -12 0
-7 -53 0
-6 -7 0
-12 -53 0
-6 -12 0
-6 -53 0
-84 -134 0
-134 -177 0
-5 -134 0
-4 -134 0
-134 -181 0
-3 -134 0
-84 -177 0
-5 -84 0
-4 -84 0
-84 -181 0
-3 -84 0
-5 -177 0
-4 -177 0
-177 -181 0
-3 -177 0
-4 -5 0
-5 -181 0
-3 -5 0
-4 -181 0
-3 -4 0
-3 -181 0
-65 -183 0
-2 -183 0
-45 -183 0
-1 -183 0
-30 -183 0
-105 -183 0
-2 -65 0
-45 -65 0
-1 -65 0
-30 -65 0
-65 -105 0
-2 -45 0
-1 -2 0
-2 -30 0
-2 -105 0
-1 -45 0
-30 -45 0
-45 -105 0
-1 -30 0
-1 -105 0
-30 -105 0
-114 -263 0
-83 -263 0
-126 -263 0
-263 -266 0
-134 -263 0
-183 -263 0
-83 -114 0
-114 -126 0
-114 -266 0
-114 -134 0
-114 -183 0
-83 -126 0
-83 -266 0
-83 -134 0
-83 -183 0
-126 -266 0
-126 -134 0
-126 -183 0
-134 -266 0
-183 -266 0
-134 -183 0
-77 -139 0
-77 -80 0
-49 -77 0
-8 -77 0
-77 -84 0
-65 -77 0
-80 -139 0
-49 -139 0
-8 -139 0
-84 -139 0
-65 -139 0
-49 -80 0
-8 -80 0
-80 -84 0
-65 -80 0
-8 -49 0
-49 -84 0
-49 -65 0
-8 -84 0
-8 -65 0
-65 -84 0
-75 -93 0
-75 -264 0
-39 -75 0
-17 -75 0
-75 -177 0
-2 -75 0
-93 -264 0
-39 -93 0
-17 -93 0
-93 -177 0
-2 -93 0
-39 -264 0
-17 -264 0
-177 -264 0
-2 -264 0
-17 -39 0
-39 -177 0
-2 -39 0
-17 -177 0
-2 -17 0
-2 -177 0
-185 -215 0
-131 -185 0
-172 -185 0
-7 -185 0
-5 -185 0
-45 -185 0
-131 -215 0
-172 -215 0
-7 -215 0
-5 -215 0
-45 -215 0
-131 -172 0
-7 -131 0
-5 -131 0
-45 -131 0
-7 -172 0
-5 -172 0
-45 -172 0
-5 -7 0
-7 -45 0
-5 -45 0
-152 -159 0
-103 -159 0
-34 -159 0
-12 -159 0
-4 -159 0
-1 -159 0
-103 -152 0
-34 -152 0
-12 -152 0
-4 -152 0
-1 -152 0
-34 -103 0
-12 -103 0
-4 -103 0
-1 -103 0
-12 -34 0
-4 -34 0
-1 -34 0
-4 -12 0
-1 -12 0
-1 -4 0
-187 -217 0
-187 -265 0
-27 -187 0
-53 -187 0
-181 -187 0
-30 -187 0
-217 -265 0
-27 -217 0
-53 -217 0
-181 -217 0
-30 -217 0
-27 -265 0
-53 -265 0
-181 -265 0
-30 -265 0
-27 -53 0
-27 -181 0
-27 -30 0
-53 -181 0
-30 -53 0
-30 -181 0
-140 -195 0
-88 -140 0
-21 -140 0
-6 -140 0
-3 -140 0
-105 -140 0
-88 -195 0
-21 -195 0
-6 -195 0
-3 -195 0
-105 -195 0
-21 -88 0
-6 -88 0
-3 -88 0
-88 -105 0
-6 -21 0
-3 -21 0
-21 -105 0
-3 -6 0
-6 -105 0
-3 -105 0
